5 5
4 3 1 10 5 19 2 15 4 1 13 3 7 4 13 5 16 1 3 7 3 2 20 5 8 1 9
8 4 5 19 3 19 2 11 4 7 1 4 11 5 1 8 2 20 3 6 5 11 4 7 1 4 8 4 3 20 4 20 1 14 5 15 1 1 9 4 4 2 2 8 1 13 3 9 3 1 3 2 20 3 15
7 3 2 4 5 19 4 9 5 2 18 3 11 4 7 5 11 1 18 3 4 8 1 9 3 9 2 3 8 4 17 1 1 9 2 3 2 2 4 4 1 11 2 5 5 20 4 8
5 1 4 10 3 4 7 3 13 5 3 5 3 6 4 13 2 2 5 16 1 11 1 1 18 2 4 4 3 11
4 1 5 9 1 5 20 3 2 12 1 18 4 19 1 5 5